% Auto-generated by scripts/generate_dzn.py
% problem_type   = regex
% instance       = regex_89
% source_json    = instances_json/2_high_blowup/regex_89.json
% blowup         = 13.142857142857142
% representation = NFA

mode = 1;

var_count = 23;
n_constraints = 2;
Q = 11;
S = 2;
q0 = [1, 1];
F = [{11}, {10}];
weights = [6, 10, 1, 4, 5, 5, 9, 8, 5, 10, 1, 5, 4, 3, 8, 3, 8, 1, 1, 9, 10, 2, 2];
d_dfa = array3d(1..2, 1..11, 1..2, [
  % k = 1
    0, 0,
    0, 0,
    0, 0,
    0, 0,
    0, 0,
    0, 0,
    0, 0,
    0, 0,
    0, 0,
    0, 0,
    0, 0,

  % k = 2
    0, 0,
    0, 0,
    0, 0,
    0, 0,
    0, 0,
    0, 0,
    0, 0,
    0, 0,
    0, 0,
    0, 0,
    0, 0
]);
d_nfa = array3d(1..2, 1..11, 1..2, [
  % k = 1
    {1, 2}, {1},
    {3}, {},
    {4}, {4},
    {5}, {5},
    {6}, {6},
    {7}, {7},
    {8}, {8},
    {9}, {9},
    {10}, {10},
    {11}, {11},
    {}, {},

  % k = 2
    {1}, {2},
    {2}, {3},
    {3}, {4},
    {4}, {5},
    {5}, {6},
    {6}, {7},
    {7}, {8},
    {8}, {9},
    {9}, {10},
    {10}, {},
    {}, {}
]);
